100
120
100
99
99
97
97
97
96
93
91
89
89
88
88
88
85
84
82
82
80
80
78
78
78
78
78
77
77
76
76
75
75
75
74
74
74
72
71
70
69
69
69
67
67
67
66
65
65
65
64
63
63
61
61
60
60
60
60
59
58
58
57
57
57
56
56
54
53
53
52
52
51
51
47
47
46
45
45
45
44
44
43
43
43
43
42
37
37
37
35
34
34
33
33
33
33
32
32
31
30
30
